$
  'Great Lakes WAVEWATCH III Unstructured'
$
 1.10 0.05 32 36 0.
$
   F T T T T T 
$
600. 600. 600. 600.
$
&UNST UGOBCAUTO = F,
  UGOBCDEPTH= -10.,
  EXPFSN = F,
  EXPFSPSI = F,
  EXPFSFCT = F,
  IMPFSN = F,
  EXPTOTAL = F,
  IMPTOTAL = T,
  IMPREFRACTION = T,
  IMPFREQSHIFT = T,
  IMPSOURCE = T,
  SETUP_APPLY_WLV = F,
  SOLVERTHR_SETUP=1E-14,
  CRIT_DEP_SETUP=0.1,
  JGS_USE_JACOBI = T,
  JGS_BLOCK_GAUSS_SEIDEL = T,
  JGS_TERMINATE_MAXITER = T,
  JGS_MAXITER = 1000,
  JGS_TERMINATE_NORM = F,
  JGS_TERMINATE_DIFFERENCE = T,
  JGS_DIFF_THR = 1.E-8,
  JGS_PMIN = 3.0,
  JGS_LIMITER = F,
  JGS_NORM_THR = 1.E-6 /
/
&SIN4 BETAMAX = 1.70 /
&SDS4 SDSCUM = 0. /
&SDB1 BJGAM = 0.8, BJALFA = 0.50 /
&SBT1 GAMMA = -0.034 /
&SNL3 NQDEF =  3, MSC =  0.00,  NSC = -3.50 /
&ANL3 QPARMS = 0.126, 0.000,  -1.0, 1.2000E+08, 0.0000E+00 ,
                0.237, 0.000,  -1.0, 0.8000E+08, 0.0000E+00 ,
                0.319, 0.000,  -1.0, 0.2500E+08, 0.0000E+00 /
&MISC FLAGTR = 4, CICE0 = 0.70, CICEN = 0.70 /
$
END OF NAMELISTS
$
  'UNST' T 'NONE'
$    
   5.0 0.30  20  -1. 4 1 '(20f10.2)'  'NAME' 'mesh.rwps'
$
   10 1. 4 1 '(....)' 'UNIT' 'bogus.obstr'
   253010*0.
   253010*0.
$
   7 3 1 '(....)' 'PART' 'mapsta.inp'
$
      0   0   F
$
      0   0   F
$
      0   0
$     
       0.    0.    0.    0.       0
$

